nbrTasks = 22;
nbrMachines = 2;
nbrTools = 2;
nbrFixtures = 1;
nbrCycles = 1;
name = ["Take top-button-ring from top-tray","Fixate top-button-ring","Mount top-button-ring on bottom-switch","Mount button on top","Take ring","Put bottom-switch on table","Take button","Angle top-button","Take bottom-switch","Lift top-button, hold top-button","Lift top-button, support","Take switch","Turn top-button","Mount switch in bottom","Take top","Take bottom","Put top in fixture","Put bottom in fixture","Put top-button-ring in top-tray","Mount ring on top-button, hold","Take top-button from fixture","Mount ring on top-button, mount"];

duration = [5,15,15,25,10,5,5,5,0,5,5,5,20,15,5,5,10,10,5,260,5,260];

identicalTasks = [{1},{2},{3},{4},{5},{6},{7},{8},{9},{10},{11},{12},{13},{14},{15},{16},{17},{18},{19},{20},{21},{22}];

cycleNbr = [0,0,0,0,0,0,0,0,0,0,0,0,0,0,0,0,0,0,0,0,0,0];

% Outputs
% 1: Output1
out_put = [0,0,1,0,0,1,0,0,0,0,0,0,0,0,0,0,0,0,0,0,0,0];

% Trays
% 1: Ring tray
% 2: Switch tray
% 3: Button tray
% 4: Bottom tray
% 5: top-tray
tray = [5,0,0,0,1,0,3,0,0,0,0,2,0,0,5,4,0,0,5,0,0,0];

% Fixtures
% 1: Front fixture
fixture = [0,1,0,1,0,0,0,1,1,0,0,0,0,1,0,0,1,1,0,0,1,0];

% Components
% 1: Bottom
% 2: Switch
% 3: Top
% 4: Button
% 5: Bottom-Switch
% 6: Ring
% 7: Top-Button
% 8: Top-Button-Ring
% 9: Complete
componentsUsed = [{8},{8},{8,5},{3,4},{6},{5},{4},{7},{5},{7},{7},{2},{7},{1,2},{3},{1},{3},{1},{8},{7},{7},{6}];
nbrComponents = 9;

componentCreated = [0,0,9,7,0,0,0,0,0,0,0,0,0,5,0,0,0,0,0,8,0,8];

% putting a component
putting = {6,17,18,19};

% mounting a component
mounting = {3,4,14,20,22};

% taking a component
taking = {1,5,7,9,12,15,16,8};

% moving a component
moving = {2,10,11,13};

concurrentTasks = [{10,11},{20,22}];
nbrConcurrentGroups = 2;

order = [|
21,8,10,13,20,2,19|];
maxOrderedLength = 7;
orderedGroups = 1;

timeToTask = [|
3,7,8,7,7,8,7,7,7,0,0,6,0,7,3,4,7,7,3,0,7,0|
0,9,9,8,10,9,7,8,8,3,3,9,3,8,0,7,8,8,0,3,8,3|
9,0,1,1,9,1,4,1,1,7,7,4,7,1,9,7,1,1,9,7,1,7|
9,1,0,2,8,0,5,2,2,8,8,4,8,2,9,7,2,2,9,8,2,8|
8,1,2,0,9,2,3,0,0,7,7,5,7,0,8,8,0,0,8,7,0,7|
10,9,8,9,0,8,11,9,9,7,7,4,7,9,10,3,9,9,10,7,9,7|
9,1,0,2,8,0,5,2,2,8,8,4,8,2,9,7,2,2,9,8,2,8|
7,4,5,3,11,5,0,3,3,7,7,8,7,3,7,9,3,3,7,7,3,7|
8,1,2,0,9,2,3,0,0,7,7,5,7,0,8,8,0,0,8,7,0,7|
8,1,2,0,9,2,3,0,0,7,7,5,7,0,8,8,0,0,8,7,0,7|
8,1,2,0,9,2,3,0,0,7,7,5,7,0,8,8,0,0,8,7,0,7|
8,1,2,0,9,2,3,0,0,7,7,5,7,0,8,8,0,0,8,7,0,7|
9,4,4,5,4,4,8,5,5,6,6,0,6,5,9,4,5,5,9,6,5,6|
3,7,8,7,7,8,7,7,7,0,0,6,0,7,3,4,7,7,3,0,7,0|
8,1,2,0,9,2,3,0,0,7,7,5,7,0,8,8,0,0,8,7,0,7|
0,9,9,8,10,9,7,8,8,3,3,9,3,8,0,7,8,8,0,3,8,3|
7,7,7,8,3,7,9,8,8,4,4,4,4,8,7,0,8,8,7,4,8,4|
8,1,2,0,9,2,3,0,0,7,7,5,7,0,8,8,0,0,8,7,0,7|
8,1,2,0,9,2,3,0,0,7,7,5,7,0,8,8,0,0,8,7,0,7|
0,9,9,8,10,9,7,8,8,3,3,9,3,8,0,7,8,8,0,3,8,3|
3,7,8,7,7,8,7,7,7,0,0,6,0,7,3,4,7,7,3,0,7,0|
8,1,2,0,9,2,3,0,0,7,7,5,7,0,8,8,0,0,8,7,0,7|
3,7,8,7,7,8,7,7,7,0,0,6,0,7,3,4,7,7,3,0,7,0|];
timeToChange = [3,5,10,10,10,7,10,10,10,10,10,10,8,3,10,5,4,10,10,5,3,10,3];
timeFromChange = [5,10,10,10,7,10,10,10,10,3,3,8,3,10,5,4,10,10,5,3,10,3];

% Tools
% 1: tool1
% 2: tool2
toolNeeded = [1,1,1,1,1,2,1,1,2,1,0,2,1,2,1,2,1,2,1,1,1,1];

changeToolDuration = [|0,60|
60,0|];
